NAME : tsp20_18.166.tour
COMMENT : Length = 166
COMMENT : Found by LKH [Keld Helsgaun]
TYPE : TOUR
DIMENSION : 20
TOUR_SECTION
1
6
14
3
18
13
5
4
19
10
17
2
12
15
7
9
8
11
16
20
-1
EOF
